
  12    4
  10   10   10   10

   0   0   0   0   0   4 2 4 5 7 
   2  10  10  10  10   1 3 
   4  10  10  10  10   4 11 10 8 6 
   4  10  10  10  10   4 11 10 8 6 
   7  10  10  10  10   4 11 10 9 8 
   6  10  10  10  10   1 9 
   5  10  10  10  10   1 8 
   7  10  10  10  10   1 12
   9  10  10  10  10   1 12
   6  10  10  10  10   1 12
   8  10  10  10  10   1 12
   0   0   0   0   0   0 
